250 250 40
120 133 2
135 186 1
86 75 6
103 73 6
66 85 6
135 97 2
91 175 2
131 176 1
71 176 3
153 72 3
87 148 2
168 107 2
118 90 4
140 109 2
132 159 1
152 93 2
135 68 3
121 158 2
68 94 6
155 76 3
133 120 2
186 135 1
75 86 6
73 103 6
85 66 6
97 135 2
175 91 2
176 131 1
176 71 3
72 153 3
148 87 2
107 168 2
90 118 4
109 140 2
159 132 1
93 152 2
68 135 3
158 121 2
94 68 6
76 155 3
